Solving original (integer) problem with strategy gdp.bigm...
--- Job model.gms Start 02/16/26 01:33:35 52.2.0 d8e408be LEX-LEG x86 64bit/Linux
--- Applying:
    /package/gams/52.2/gmsprmun.txt
--- GAMS Parameters defined
    Input /local/scratch/a/sgusev/repos/k_means/data/gams_scip_gdp.bigm/no_mode/2026-02-16_01-33-34/original/model.gms
    Output /local/scratch/a/sgusev/repos/k_means/data/gams_scip_gdp.bigm/no_mode/2026-02-16_01-33-34/original/output.lst
    ScrDir /local/scratch/a/sgusev/repos/k_means/data/gams_scip_gdp.bigm/no_mode/2026-02-16_01-33-34/original/225a/
    SysDir /package/gams/52.2/
    CurDir /local/scratch/a/sgusev/repos/k_means/data/gams_scip_gdp.bigm/no_mode/2026-02-16_01-33-34/original/
    LogOption 3
    AppendLog 1
Licensee: David Bernal / SECQUOIA Research Group         G251008+0003Ac-GEN
          Purdue University, Davidson School of Chemical EngineeringDCE4838
          225a/gamslice.dat
          5a82958a-fbca-4a23
          node:66820903 mem:995 cores:48 ipport:57863 v:2                  
          Evaluation license: Not for commercial or production use
          The time-limited license stops working on : Jun 30, 2027
System information: 48 physical cores and 995 Gb physical memory detected
GAMS 52.2.0   Copyright (C) 1987-2025 GAMS Development. All rights reserved
--- Starting compilation
--- model.gms(281) 2 Mb
--- $echo File /local/scratch/a/sgusev/repos/k_means/data/gams_scip_gdp.bigm/no_mode/2026-02-16_01-33-34/original/scip.opt
--- model.gms(495) 2 Mb
--- Starting execution: elapsed 0:00:00.006
--- model.gms(291) 3 Mb
--- Generating MINLP model GAMS_MODEL
--- model.gms(295) 5 Mb
---   69 rows  78 columns  332 non-zeroes
---   676 nl-code  156 nl-non-zeroes
---   52 discrete-columns
--- Range statistics (absolute non-zero finite values)
--- RHS       [min, max] : [ 1.000E+00, 9.741E+00] - Zero values observed as well
--- Bound     [min, max] : [ 1.000E+00, 7.800E+01] - Zero values observed as well
--- Matrix    [min, max] : [ 6.775E-02, 9.741E+00]
--- model.gms(295) 3 Mb
--- Executing SCIP (Solvelink=5): elapsed 0:00:00.009

SCIP             52.2.0 d8e408be Dec 8, 2025           LEG x86 64bit/Linux    
SCIP version 9.2.4 (a94f778ac8)
Copyright (c) 2002-2025 Zuse Institute Berlin (ZIB)

External libraries: 
  CPLEX 22.1.2.0       Linear Programming Solver developed by IBM (www.cplex.com)
  CppAD 20180000.0     Algorithmic Differentiation of C++ algorithms developed by B. Bell (github.com/coin-or/CppAD)
  PaPILO 2.4.4         parallel presolve for integer and linear optimization (github.com/scipopt/papilo) (built with TBB) [GitHash: 7c826d50]
  Nauty 2.8.9          Computing Graph Automorphism Groups by Brendan D. McKay (users.cecs.anu.edu.au/~bdm/nauty)
  sassy 1.1            Symmetry preprocessor by Markus Anders (github.com/markusa4/sassy)
  Ipopt 3.14.19        Interior Point Optimizer developed by A. Waechter et.al. (github.com/coin-or/Ipopt)

reading option file /local/scratch/a/sgusev/repos/k_means/data/gams_scip_gdp.bigm/no_mode/2026-02-16_01-33-34/original/scip.opt
non-default parameter settings:
limits/time = 300
limits/gap = 1e-06
limits/absgap = 1e-10
lp/threads = 1
misc/printreason = FALSE
numerics/dualfeastol = 1e-06
parallel/maxnthreads = 1
nlpi/ipopt/linear_solver = "ma27"
nlpi/ipopt/linear_system_scaling = "mc19"

original problem has 77 variables (52 bin, 0 int, 25 cont) and 68 constraints

all 1 solutions given by solution candidate storage are infeasible

presolving:
(round 1, exhaustive) 0 del vars, 0 del conss, 0 add conss, 0 chg bounds, 0 chg sides, 0 chg coeffs, 13 upgd conss, 0 impls, 13 clqs
   (0.0s) probing: 51/52 (98.1%) - 0 fixings, 0 aggregations, 0 implications, 0 bound changes
   (0.0s) probing aborted: 50/50 successive totally useless probings
   (0.0s) symmetry computation started: requiring (bin +, int +, cont +), (fixed: bin -, int -, cont -)
   (0.0s) no symmetry present (symcode time: 0.00)
presolving (2 rounds: 2 fast, 2 medium, 2 exhaustive):
 0 deleted vars, 0 deleted constraints, 0 added constraints, 0 tightened bounds, 0 added holes, 0 changed sides, 0 changed coefficients
 0 implications, 13 cliques
presolved problem has 77 variables (52 bin, 0 int, 0 impl, 25 cont) and 68 constraints
     13 constraints of type <setppc>
      3 constraints of type <linear>
     52 constraints of type <nonlinear>
Presolving Time: 0.01

 time | node  | left  |LP iter|LP it/n|mem/heur|mdpt |vars |cons |rows |cuts |sepa|confs|strbr|  dualbound   | primalbound  |  gap   | compl. 
t 0.0s|     1 |     0 |    60 |     - |  trysol|   0 | 141 |  68 |  92 |   0 |  0 |   0 |   0 | 0.000000e+00 | 1.321578e+01 |    Inf | unknown
  0.0s|     1 |     0 |   112 |     - |  2403k |   0 | 141 |  68 |  92 |   0 |  0 |   0 |   0 | 0.000000e+00 | 1.321578e+01 |    Inf | unknown
r 0.1s|     1 |     0 |   112 |     - |shifting|   0 | 141 |  68 |  92 |   0 |  0 |   0 |   0 | 0.000000e+00 | 6.805866e+00 |    Inf | unknown
  0.1s|     1 |     0 |   132 |     - |  2604k |   0 | 141 |  68 | 104 |  12 |  1 |   0 |   0 | 0.000000e+00 | 6.805866e+00 |    Inf | unknown
  0.1s|     1 |     0 |   132 |     - |  2607k |   0 | 141 |  68 | 104 |  12 |  1 |   0 |   0 | 0.000000e+00 | 6.805866e+00 |    Inf | unknown
  0.1s|     1 |     0 |   153 |     - |  2791k |   0 | 141 |  68 | 115 |  23 |  2 |   0 |   0 | 0.000000e+00 | 6.805866e+00 |    Inf | unknown
  0.1s|     1 |     0 |   171 |     - |  3085k |   0 | 141 |  68 | 127 |  35 |  3 |   0 |   0 | 0.000000e+00 | 6.805866e+00 |    Inf | unknown
  0.1s|     1 |     0 |   188 |     - |  3254k |   0 | 141 |  68 | 139 |  47 |  4 |   0 |   0 | 0.000000e+00 | 6.805866e+00 |    Inf | unknown
  0.1s|     1 |     0 |   204 |     - |  3337k |   0 | 141 |  68 | 148 |  56 |  5 |   0 |   0 | 0.000000e+00 | 6.805866e+00 |    Inf | unknown
  0.1s|     1 |     0 |   219 |     - |  3710k |   0 | 141 |  68 | 158 |  66 |  6 |   0 |   0 | 0.000000e+00 | 6.805866e+00 |    Inf | unknown
  0.1s|     1 |     0 |   241 |     - |  3910k |   0 | 141 |  68 | 170 |  78 |  7 |   0 |   0 | 0.000000e+00 | 6.805866e+00 |    Inf | unknown
  0.1s|     1 |     0 |   263 |     - |  4061k |   0 | 141 |  68 | 180 |  88 |  8 |   0 |   0 | 0.000000e+00 | 6.805866e+00 |    Inf | unknown
  0.1s|     1 |     0 |   282 |     - |  4300k |   0 | 141 |  68 | 190 |  98 |  9 |   0 |   0 | 0.000000e+00 | 6.805866e+00 |    Inf | unknown
  0.1s|     1 |     0 |   301 |     - |  4416k |   0 | 141 |  68 | 197 | 105 | 10 |   0 |   0 | 0.000000e+00 | 6.805866e+00 |    Inf | unknown
  0.1s|     1 |     0 |   316 |     - |  4439k |   0 | 141 |  68 | 207 | 115 | 11 |   0 |   0 | 0.000000e+00 | 6.805866e+00 |    Inf | unknown
 time | node  | left  |LP iter|LP it/n|mem/heur|mdpt |vars |cons |rows |cuts |sepa|confs|strbr|  dualbound   | primalbound  |  gap   | compl. 
d 0.4s|     1 |     0 |   433 |     - |    mpec|   0 | 141 |  68 | 207 | 115 | 11 |   0 |   0 | 0.000000e+00 | 6.406830e+00 |    Inf | unknown
  0.4s|     1 |     0 |   433 |     - |  5135k |   0 | 141 |  68 | 207 | 115 | 11 |   0 |   0 | 0.000000e+00 | 6.406830e+00 |    Inf | unknown
  0.4s|     1 |     0 |   446 |     - |  5155k |   0 | 141 |  68 | 214 | 122 | 12 |   0 |   0 | 0.000000e+00 | 6.406830e+00 |    Inf | unknown
  0.4s|     1 |     0 |   460 |     - |  5158k |   0 | 141 |  68 | 221 | 129 | 13 |   0 |   0 | 0.000000e+00 | 6.406830e+00 |    Inf | unknown
  0.4s|     1 |     2 |   460 |     - |  5163k |   0 | 141 |  68 | 221 | 129 | 13 |   0 |  24 | 0.000000e+00 | 6.406830e+00 |    Inf | unknown
  0.8s|   100 |    93 |  5516 |  52.9 |  7900k |  12 | 141 |  69 | 152 |2529 |  5 |   5 | 208 | 0.000000e+00 | 6.406830e+00 |    Inf | unknown
  1.2s|   200 |   193 | 11764 |  57.7 |    10M |  17 | 141 |  69 | 217 |5454 |  5 |   5 | 231 | 0.000000e+00 | 6.406830e+00 |    Inf | unknown
L 1.3s|   201 |   192 | 11774 |  57.5 |    rins|  17 | 141 |  69 | 214 |5457 |  2 |   5 | 231 | 0.000000e+00 | 4.382627e+00 |    Inf |   0.57%
L 1.5s|   242 |   233 | 14840 |  60.4 |    alns|  20 | 141 |  69 | 304 |6583 | 10 |  12 | 231 | 0.000000e+00 | 4.280973e+00 |    Inf |   0.81%
L 1.6s|   271 |   253 | 16403 |  59.7 |    alns|  21 | 141 |  69 | 212 |7293 |  0 |  13 | 232 | 0.000000e+00 | 3.134876e+00 |    Inf |   1.64%
  1.7s|   300 |   276 | 18215 |  60.0 |    11M |  22 | 141 |  78 | 230 |8159 |  6 |  27 | 234 | 0.000000e+00 | 3.134876e+00 |    Inf |   1.95%
  2.3s|   400 |   342 | 25788 |  63.9 |    11M |  22 | 141 |  90 | 191 |  11k|  8 |  48 | 251 | 0.000000e+00 | 3.134876e+00 |    Inf |   3.84%
  2.6s|   500 |   414 | 31118 |  61.8 |    13M |  22 | 141 | 102 | 261 |  13k|  7 |  76 | 272 | 0.000000e+00 | 3.134876e+00 |    Inf |   4.55%
  3.0s|   600 |   464 | 36351 |  60.2 |    15M |  24 | 141 | 115 | 224 |  16k|  0 | 101 | 295 | 0.000000e+00 | 3.134876e+00 |    Inf |   5.52%
  3.3s|   700 |   532 | 42916 |  61.0 |    16M |  24 | 141 | 125 | 199 |  19k|  6 | 132 | 312 | 0.000000e+00 | 3.134876e+00 |    Inf |   7.12%
 time | node  | left  |LP iter|LP it/n|mem/heur|mdpt |vars |cons |rows |cuts |sepa|confs|strbr|  dualbound   | primalbound  |  gap   | compl. 
t 3.4s|   726 |   547 | 44782 |  61.4 |  trysol|  24 | 141 | 125 |   0 |  20k|  0 | 138 | 318 | 0.000000e+00 | 3.063058e+00 |    Inf |   7.26%
  3.6s|   800 |   587 | 48904 |  60.9 |    16M |  25 | 141 | 133 | 227 |  22k|  7 | 154 | 324 | 0.000000e+00 | 3.063058e+00 |    Inf |   9.02%
  3.9s|   900 |   647 | 54481 |  60.3 |    16M |  25 | 141 | 141 | 250 |  25k|  2 | 182 | 339 | 0.000000e+00 | 3.063058e+00 |    Inf |  10.24%
  4.3s|  1000 |   691 | 59151 |  58.9 |    18M |  25 | 141 | 147 | 289 |  27k|  1 | 205 | 345 | 0.000000e+00 | 3.063058e+00 |    Inf |  11.11%
  4.7s|  1100 |   749 | 65258 |  59.1 |    19M |  25 | 141 | 165 | 216 |  30k|  8 | 237 | 353 | 0.000000e+00 | 3.063058e+00 |    Inf |  12.75%
  4.9s|  1200 |   801 | 70107 |  58.2 |    19M |  25 | 141 | 188 | 238 |  32k|  1 | 276 | 367 | 0.000000e+00 | 3.063058e+00 |    Inf |  13.47%
  5.2s|  1300 |   875 | 75889 |  58.2 |    20M |  25 | 141 | 197 | 291 |  35k|  6 | 303 | 385 | 0.000000e+00 | 3.063058e+00 |    Inf |  13.47%
L 5.4s|  1377 |   838 | 79362 |  57.5 |    rins|  25 | 141 | 205 | 269 |  37k|  7 | 326 | 391 | 0.000000e+00 | 2.845505e+00 |    Inf |  14.60%
  5.5s|  1400 |   845 | 80971 |  57.7 |    22M |  26 | 141 | 210 | 286 |  37k|  9 | 332 | 392 | 0.000000e+00 | 2.845505e+00 |    Inf |  15.12%
  5.8s|  1500 |   903 | 86260 |  57.4 |    22M |  26 | 141 | 220 | 245 |  40k|  1 | 355 | 398 | 0.000000e+00 | 2.845505e+00 |    Inf |  15.95%
  6.1s|  1600 |   963 | 92267 |  57.5 |    23M |  26 | 141 | 228 | 241 |  43k|  7 | 391 | 414 | 0.000000e+00 | 2.845505e+00 |    Inf |  16.07%
  6.3s|  1700 |  1033 | 98471 |  57.8 |    23M |  27 | 141 | 233 | 273 |  45k|  7 | 412 | 423 | 0.000000e+00 | 2.845505e+00 |    Inf |  16.10%
o 6.4s|  1719 |  1019 | 99289 |  57.6 |objpscos|  27 | 141 | 127 | 212 |  46k|  0 | 419 | 426 | 0.000000e+00 | 2.789127e+00 |    Inf |  16.33%
  6.6s|  1800 |  1064 |103364 |  57.3 |    23M |  28 | 141 | 134 | 268 |  48k|  2 | 433 | 432 | 0.000000e+00 | 2.789127e+00 |    Inf |  16.90%
  6.8s|  1900 |  1122 |108261 |  56.9 |    24M |  28 | 141 | 138 | 320 |  50k|  5 | 455 | 437 | 0.000000e+00 | 2.789127e+00 |    Inf |  16.94%
 time | node  | left  |LP iter|LP it/n|mem/heur|mdpt |vars |cons |rows |cuts |sepa|confs|strbr|  dualbound   | primalbound  |  gap   | compl. 
  7.1s|  2000 |  1180 |112894 |  56.3 |    25M |  28 | 141 | 139 | 289 |  52k|  2 | 481 | 444 | 3.975158e-02 | 2.789127e+00 |6916.39%|  17.35%
L 7.2s|  2014 |  1184 |113359 |  56.2 |crossove|  30 | 141 | 139 | 307 |  53k|  2 | 484 | 444 | 3.975158e-02 | 2.789127e+00 |6916.39%|  17.56%
t 7.2s|  2022 |  1170 |113626 |  56.1 |  trysol|  32 | 141 | 139 |   0 |  53k|  0 | 484 | 444 | 3.975158e-02 | 2.766682e+00 |6859.93%|  17.60%
  7.4s|  2100 |  1198 |116492 |  55.4 |    26M |  32 | 141 | 144 | 231 |  54k|  8 | 494 | 446 | 4.155091e-02 | 2.766682e+00 |6558.54%|  18.11%
  7.6s|  2200 |  1238 |120528 |  54.7 |    26M |  32 | 141 | 147 | 268 |  56k|  1 | 511 | 454 | 4.156527e-02 | 2.766682e+00 |6556.23%|  18.62%
  7.8s|  2300 |  1278 |123790 |  53.7 |    27M |  32 | 141 | 153 | 246 |  58k|  0 | 529 | 460 | 8.104848e-02 | 2.766682e+00 |3313.61%|  19.70%
  7.9s|  2400 |  1318 |127458 |  53.0 |    27M |  32 | 141 | 155 | 254 |  60k|  0 | 551 | 464 | 1.122464e-01 | 2.766682e+00 |2364.83%|  19.96%
  8.1s|  2500 |  1360 |131400 |  52.5 |    28M |  32 | 141 | 169 | 234 |  62k|  5 | 584 | 469 | 1.217317e-01 | 2.766682e+00 |2172.77%|  20.33%
  8.3s|  2600 |  1388 |134924 |  51.8 |    29M |  32 | 141 | 176 | 266 |  64k|  0 | 598 | 475 | 1.217317e-01 | 2.766682e+00 |2172.77%|  21.11%
  8.5s|  2700 |  1430 |137895 |  51.0 |    30M |  32 | 141 | 180 | 273 |  65k|  3 | 608 | 480 | 1.217317e-01 | 2.766682e+00 |2172.77%|  21.11%
  8.6s|  2800 |  1466 |140685 |  50.2 |    31M |  32 | 141 | 189 | 310 |  67k|  5 | 632 | 481 | 1.217317e-01 | 2.766682e+00 |2172.77%|  21.76%
  8.8s|  2900 |  1498 |143600 |  49.4 |    31M |  32 | 141 | 193 | 237 |  68k|  6 | 648 | 483 | 1.217317e-01 | 2.766682e+00 |2172.77%|  22.49%
  9.0s|  3000 |  1533 |147623 |  49.1 |    32M |  32 | 141 | 199 | 183 |  70k|  2 | 662 | 485 | 1.217343e-01 | 2.766682e+00 |2172.72%|  23.04%
  9.2s|  3100 |  1571 |151270 |  48.7 |    32M |  32 | 141 | 206 | 258 |  72k|  6 | 675 | 490 | 1.217343e-01 | 2.766682e+00 |2172.72%|  23.44%
  9.4s|  3200 |  1605 |154368 |  48.2 |    33M |  32 | 141 | 211 | 182 |  73k|  2 | 692 | 492 | 1.327861e-01 | 2.766682e+00 |1983.56%|  25.06%
 time | node  | left  |LP iter|LP it/n|mem/heur|mdpt |vars |cons |rows |cuts |sepa|confs|strbr|  dualbound   | primalbound  |  gap   | compl. 
  9.6s|  3300 |  1631 |157162 |  47.6 |    35M |  32 | 141 | 217 | 286 |  75k|  0 | 708 | 494 | 1.532032e-01 | 2.766682e+00 |1705.89%|  25.85%
  9.7s|  3400 |  1663 |160936 |  47.3 |    35M |  32 | 141 | 218 | 270 |  77k|  2 | 721 | 500 | 1.532032e-01 | 2.766682e+00 |1705.89%|  26.64%
  9.9s|  3500 |  1699 |163797 |  46.7 |    35M |  32 | 141 | 222 | 325 |  78k|  8 | 734 | 505 | 1.532032e-01 | 2.766682e+00 |1705.89%|  26.83%
 10.1s|  3600 |  1727 |167257 |  46.4 |    36M |  32 | 141 | 225 | 270 |  80k|  6 | 740 | 510 | 1.927862e-01 | 2.766682e+00 |1335.10%|  27.23%
 10.2s|  3700 |  1743 |169984 |  45.9 |    36M |  32 | 141 | 227 | 309 |  81k|  4 | 753 | 512 | 1.927995e-01 | 2.766682e+00 |1335.00%|  27.80%
 10.4s|  3800 |  1761 |173218 |  45.5 |    36M |  32 | 141 | 234 | 304 |  83k|  0 | 770 | 520 | 2.173185e-01 | 2.766682e+00 |1173.10%|  28.71%
 10.5s|  3900 |  1787 |175998 |  45.1 |    36M |  32 | 141 | 234 | 257 |  84k|  0 | 780 | 528 | 2.765266e-01 | 2.766682e+00 | 900.51%|  28.99%
 10.7s|  4000 |  1803 |179112 |  44.7 |    36M |  32 | 141 | 246 | 305 |  86k|  7 | 803 | 531 | 3.419883e-01 | 2.766682e+00 | 709.00%|  29.48%
 10.9s|  4100 |  1817 |182327 |  44.4 |    38M |  32 | 141 | 246 | 282 |  88k|  6 | 816 | 537 | 3.419889e-01 | 2.766682e+00 | 709.00%|  29.96%
 11.1s|  4200 |  1841 |185179 |  44.0 |    38M |  32 | 141 | 249 | 289 |  89k|  6 | 824 | 540 | 3.515813e-01 | 2.766682e+00 | 686.93%|  30.64%
 11.3s|  4300 |  1854 |188616 |  43.8 |    39M |  32 | 141 | 248 | 232 |  91k|  1 | 835 | 544 | 3.515813e-01 | 2.766682e+00 | 686.93%|  31.25%
 11.4s|  4400 |  1900 |192266 |  43.6 |    40M |  32 | 141 | 252 | 218 |  93k|  2 | 855 | 547 | 3.587525e-01 | 2.766682e+00 | 671.20%|  31.34%
 11.6s|  4500 |  1924 |194985 |  43.3 |    40M |  32 | 141 | 255 | 235 |  94k|  2 | 871 | 553 | 3.587540e-01 | 2.766682e+00 | 671.19%|  31.85%
 11.8s|  4600 |  1951 |198336 |  43.1 |    41M |  32 | 141 | 261 | 270 |  96k|  1 | 892 | 555 | 3.630057e-01 | 2.766682e+00 | 662.16%|  32.41%
*11.9s|  4699 |  1911 |201406 |  42.8 |    LP  |  32 | 141 | 277 | 348 |  98k|  9 | 916 | 559 | 3.690201e-01 | 2.745639e+00 | 644.04%|  33.10%
 time | node  | left  |LP iter|LP it/n|mem/heur|mdpt |vars |cons |rows |cuts |sepa|confs|strbr|  dualbound   | primalbound  |  gap   | compl. 
 11.9s|  4700 |  1912 |201411 |  42.8 |    41M |  32 | 141 | 277 | 247 |  98k|  2 | 916 | 559 | 3.690201e-01 | 2.745639e+00 | 644.04%|  33.10%
 12.1s|  4800 |  1920 |204335 |  42.5 |    41M |  32 | 141 | 279 | 218 |  99k|  3 | 934 | 566 | 3.713793e-01 | 2.745639e+00 | 639.31%|  33.98%
*12.2s|  4829 |  1542 |205417 |  42.5 |    LP  |  33 | 141 | 279 | 371 | 100k|  9 | 939 | 566 | 3.713793e-01 | 2.525554e+00 | 580.05%|  36.78%
 12.3s|  4900 |  1559 |207153 |  42.2 |    41M |  33 | 141 | 285 | 221 | 100k|  0 | 949 | 567 | 3.755990e-01 | 2.525554e+00 | 572.41%|  37.00%
 12.5s|  5000 |  1567 |210135 |  42.0 |    41M |  33 | 141 | 287 | 277 | 102k|  0 | 967 | 568 | 3.794968e-01 | 2.525554e+00 | 565.50%|  37.57%
 12.7s|  5100 |  1579 |212845 |  41.7 |    41M |  33 | 141 | 290 | 216 | 103k|  0 | 985 | 575 | 4.580402e-01 | 2.525554e+00 | 451.38%|  38.15%
 12.8s|  5200 |  1589 |215762 |  41.4 |    41M |  33 | 141 | 286 | 201 | 105k|  3 | 999 | 578 | 4.959883e-01 | 2.525554e+00 | 409.20%|  38.66%
 13.0s|  5300 |  1607 |218523 |  41.2 |    42M |  33 | 141 | 290 | 268 | 106k|  5 |1017 | 580 | 5.006558e-01 | 2.525554e+00 | 404.45%|  39.11%
 13.2s|  5400 |  1609 |221031 |  40.9 |    42M |  33 | 141 | 296 | 203 | 107k|  1 |1034 | 583 | 5.068562e-01 | 2.525554e+00 | 398.28%|  39.82%
 13.3s|  5500 |  1611 |223173 |  40.5 |    42M |  33 | 141 | 297 | 286 | 108k|  2 |1053 | 589 | 5.194632e-01 | 2.525554e+00 | 386.19%|  40.77%
 13.6s|  5600 |  1619 |225850 |  40.3 |    42M |  33 | 141 | 302 | 349 | 110k|  2 |1073 | 598 | 5.381200e-01 | 2.525554e+00 | 369.33%|  41.27%
 13.8s|  5700 |  1633 |228477 |  40.0 |    42M |  33 | 141 | 301 | 271 | 111k|  1 |1084 | 600 | 5.929838e-01 | 2.525554e+00 | 325.91%|  42.22%
 13.9s|  5800 |  1639 |231005 |  39.8 |    42M |  33 | 141 | 307 | 220 | 112k|  2 |1101 | 602 | 6.013205e-01 | 2.525554e+00 | 320.00%|  42.81%
 14.2s|  5900 |  1651 |233876 |  39.6 |    42M |  33 | 141 | 312 | 198 | 113k|  2 |1116 | 607 | 6.013478e-01 | 2.525554e+00 | 319.98%|  43.26%
 14.4s|  6000 |  1659 |236460 |  39.4 |    43M |  33 | 141 | 318 | 279 | 115k|  1 |1132 | 614 | 6.014884e-01 | 2.525554e+00 | 319.88%|  43.74%
 time | node  | left  |LP iter|LP it/n|mem/heur|mdpt |vars |cons |rows |cuts |sepa|confs|strbr|  dualbound   | primalbound  |  gap   | compl. 
 14.5s|  6100 |  1663 |238861 |  39.1 |    43M |  34 | 141 | 323 | 273 | 116k|  5 |1147 | 617 | 6.015102e-01 | 2.525554e+00 | 319.87%|  44.65%
 14.7s|  6200 |  1670 |241919 |  39.0 |    43M |  34 | 141 | 323 | 238 | 117k|  0 |1154 | 622 | 6.346295e-01 | 2.525554e+00 | 297.96%|  45.12%
 14.8s|  6300 |  1674 |245190 |  38.9 |    43M |  34 | 141 | 336 | 211 | 119k|  0 |1182 | 626 | 6.497174e-01 | 2.525554e+00 | 288.72%|  45.85%
*14.9s|  6376 |  1510 |246951 |  38.7 |    LP  |  34 | 141 | 172 | 291 | 120k|  6 |1188 | 626 | 6.505967e-01 | 2.446173e+00 | 275.99%|  47.69%
 15.0s|  6400 |  1510 |247554 |  38.6 |    43M |  34 | 141 | 175 | 196 | 120k|  0 |1192 | 626 | 6.788717e-01 | 2.446173e+00 | 260.33%|  47.85%
 15.1s|  6500 |  1504 |250036 |  38.4 |    43M |  34 | 141 | 170 | 295 | 121k|  7 |1203 | 630 | 6.788717e-01 | 2.446173e+00 | 260.33%|  48.35%
 15.3s|  6600 |  1498 |252266 |  38.2 |    43M |  34 | 141 | 175 | 229 | 122k|  2 |1222 | 636 | 7.117440e-01 | 2.446173e+00 | 243.69%|  49.17%
 15.4s|  6700 |  1490 |254694 |  38.0 |    43M |  34 | 141 | 175 | 232 | 123k|  2 |1236 | 636 | 7.318893e-01 | 2.446173e+00 | 234.23%|  49.85%
 15.6s|  6800 |  1499 |256907 |  37.7 |    43M |  34 | 141 | 178 | 410 | 125k|  4 |1250 | 641 | 7.425263e-01 | 2.446173e+00 | 229.44%|  50.17%
 15.7s|  6900 |  1487 |259656 |  37.6 |    43M |  34 | 141 | 182 | 297 | 126k|  0 |1262 | 645 | 7.914762e-01 | 2.446173e+00 | 209.06%|  50.82%
 15.9s|  7000 |  1497 |262574 |  37.5 |    43M |  34 | 141 | 182 | 237 | 127k|  0 |1279 | 652 | 8.194293e-01 | 2.446173e+00 | 198.52%|  51.04%
 16.0s|  7100 |  1496 |264831 |  37.3 |    43M |  34 | 141 | 185 | 196 | 128k|  0 |1288 | 655 | 8.388302e-01 | 2.446173e+00 | 191.62%|  51.59%
 16.2s|  7200 |  1498 |267160 |  37.1 |    43M |  34 | 141 | 189 | 199 | 129k|  0 |1296 | 656 | 8.390324e-01 | 2.446173e+00 | 191.55%|  51.97%
 16.3s|  7300 |  1496 |269439 |  36.9 |    43M |  34 | 141 | 197 | 295 | 130k|  7 |1310 | 657 | 8.977826e-01 | 2.446173e+00 | 172.47%|  52.70%
 16.5s|  7400 |  1482 |271422 |  36.6 |    43M |  34 | 141 | 204 | 247 | 131k|  1 |1330 | 660 | 9.422601e-01 | 2.446173e+00 | 159.61%|  53.21%
 time | node  | left  |LP iter|LP it/n|mem/heur|mdpt |vars |cons |rows |cuts |sepa|confs|strbr|  dualbound   | primalbound  |  gap   | compl. 
 16.6s|  7500 |  1472 |273154 |  36.4 |    43M |  34 | 141 | 210 | 254 | 132k|  7 |1348 | 663 | 9.746223e-01 | 2.446173e+00 | 150.99%|  54.11%
 16.7s|  7600 |  1459 |276155 |  36.3 |    43M |  34 | 141 | 217 | 271 | 133k|  1 |1374 | 668 | 9.919489e-01 | 2.446173e+00 | 146.60%|  54.49%
 16.9s|  7700 |  1461 |278993 |  36.2 |    43M |  34 | 141 | 216 | 284 | 135k|  6 |1385 | 674 | 1.009237e+00 | 2.446173e+00 | 142.38%|  54.88%
 17.1s|  7800 |  1447 |281009 |  36.0 |    43M |  34 | 141 | 217 | 235 | 136k|  2 |1400 | 677 | 1.031944e+00 | 2.446173e+00 | 137.05%|  55.48%
 17.3s|  7900 |  1441 |283096 |  35.8 |    44M |  34 | 141 | 220 | 235 | 137k|  6 |1414 | 684 | 1.065861e+00 | 2.446173e+00 | 129.50%|  55.88%
 17.4s|  8000 |  1442 |285655 |  35.7 |    44M |  34 | 141 | 222 | 279 | 138k|  9 |1427 | 691 | 1.065861e+00 | 2.446173e+00 | 129.50%|  56.07%
 17.6s|  8100 |  1428 |288426 |  35.6 |    44M |  34 | 141 | 226 | 276 | 139k|  6 |1442 | 696 | 1.083769e+00 | 2.446173e+00 | 125.71%|  56.87%
 17.7s|  8200 |  1426 |290876 |  35.4 |    45M |  34 | 141 | 224 | 236 | 140k|  1 |1450 | 704 | 1.087501e+00 | 2.446173e+00 | 124.94%|  57.32%
 17.9s|  8300 |  1425 |293723 |  35.4 |    45M |  34 | 141 | 226 | 206 | 141k|  0 |1462 | 708 | 1.107343e+00 | 2.446173e+00 | 120.90%|  57.93%
 18.1s|  8400 |  1414 |296144 |  35.2 |    45M |  34 | 141 | 232 | 304 | 142k|  5 |1479 | 713 | 1.124889e+00 | 2.446173e+00 | 117.46%|  58.44%
 18.2s|  8500 |  1402 |298287 |  35.1 |    45M |  34 | 141 | 237 | 255 | 143k|  2 |1490 | 718 | 1.127941e+00 | 2.446173e+00 | 116.87%|  58.76%
 18.4s|  8600 |  1396 |300813 |  34.9 |    45M |  34 | 141 | 250 | 163 | 145k|  1 |1517 | 724 | 1.132402e+00 | 2.446173e+00 | 116.02%|  59.57%
 18.6s|  8700 |  1398 |303435 |  34.8 |    45M |  34 | 141 | 261 | 289 | 146k|  2 |1536 | 727 | 1.132402e+00 | 2.446173e+00 | 116.02%|  60.16%
 18.8s|  8800 |  1402 |305844 |  34.7 |    45M |  34 | 141 | 267 | 216 | 147k|  2 |1555 | 732 | 1.137186e+00 | 2.446173e+00 | 115.11%|  60.54%
 19.0s|  8900 |  1404 |308074 |  34.6 |    46M |  34 | 141 | 276 | 292 | 148k|  3 |1579 | 734 | 1.137186e+00 | 2.446173e+00 | 115.11%|  60.84%
 time | node  | left  |LP iter|LP it/n|mem/heur|mdpt |vars |cons |rows |cuts |sepa|confs|strbr|  dualbound   | primalbound  |  gap   | compl. 
 19.1s|  9000 |  1402 |310640 |  34.5 |    46M |  34 | 141 | 287 | 233 | 149k|  0 |1600 | 742 | 1.137583e+00 | 2.446173e+00 | 115.03%|  61.30%
 19.3s|  9100 |  1387 |312895 |  34.4 |    46M |  34 | 141 | 290 | 264 | 150k|  1 |1612 | 749 | 1.148720e+00 | 2.446173e+00 | 112.95%|  61.69%
 19.5s|  9200 |  1367 |315220 |  34.2 |    46M |  34 | 141 | 294 | 236 | 151k|  0 |1627 | 753 | 1.155564e+00 | 2.446173e+00 | 111.69%|  62.31%
 19.6s|  9300 |  1359 |317496 |  34.1 |    46M |  34 | 141 | 297 | 204 | 152k|  0 |1635 | 759 | 1.171938e+00 | 2.446173e+00 | 108.73%|  62.79%
 19.8s|  9400 |  1340 |319348 |  33.9 |    46M |  34 | 141 | 304 | 220 | 153k|  2 |1651 | 761 | 1.179993e+00 | 2.446173e+00 | 107.30%|  63.50%
 19.9s|  9500 |  1318 |321838 |  33.9 |    46M |  34 | 141 | 310 | 240 | 154k|  0 |1667 | 765 | 1.183174e+00 | 2.446173e+00 | 106.75%|  64.63%
 20.1s|  9600 |  1305 |324059 |  33.7 |    47M |  34 | 141 | 321 | 304 | 155k|  0 |1690 | 771 | 1.190460e+00 | 2.446173e+00 | 105.48%|  65.17%
 20.3s|  9700 |  1293 |326802 |  33.7 |    47M |  34 | 141 | 322 | 318 | 156k|  0 |1701 | 783 | 1.201056e+00 | 2.446173e+00 | 103.67%|  65.52%
 20.5s|  9800 |  1277 |328652 |  33.5 |    47M |  34 | 141 | 321 | 318 | 157k|  0 |1709 | 785 | 1.205754e+00 | 2.446173e+00 | 102.88%|  66.06%
 20.6s|  9900 |  1257 |330894 |  33.4 |    47M |  34 | 141 | 324 | 276 | 158k|  4 |1724 | 791 | 1.222929e+00 | 2.446173e+00 | 100.03%|  66.62%
 20.9s| 10000 |  1248 |333594 |  33.3 |    48M |  34 | 141 | 331 | 456 | 159k|  0 |1740 | 798 | 1.223067e+00 | 2.446173e+00 | 100.00%|  67.22%
 21.0s| 10100 |  1240 |336289 |  33.3 |    48M |  34 | 141 | 335 | 273 | 161k|  7 |1766 | 806 | 1.245980e+00 | 2.446173e+00 |  96.33%|  67.69%
 21.2s| 10200 |  1240 |339460 |  33.3 |    48M |  34 | 141 | 345 | 235 | 162k|  1 |1789 | 809 | 1.257609e+00 | 2.446173e+00 |  94.51%|  68.01%
 21.4s| 10300 |  1226 |342191 |  33.2 |    48M |  34 | 141 | 351 | 327 | 163k|  6 |1806 | 812 | 1.269843e+00 | 2.446173e+00 |  92.64%|  68.47%
 21.5s| 10400 |  1218 |344839 |  33.1 |    48M |  34 | 141 | 355 | 255 | 164k|  1 |1822 | 818 | 1.269860e+00 | 2.446173e+00 |  92.63%|  68.85%
 time | node  | left  |LP iter|LP it/n|mem/heur|mdpt |vars |cons |rows |cuts |sepa|confs|strbr|  dualbound   | primalbound  |  gap   | compl. 
 21.7s| 10500 |  1193 |347024 |  33.0 |    48M |  34 | 141 | 356 | 527 | 165k|  0 |1837 | 821 | 1.278233e+00 | 2.446173e+00 |  91.37%|  69.93%
 21.8s| 10600 |  1156 |349189 |  32.9 |    48M |  34 | 141 | 358 | 272 | 166k|  2 |1853 | 822 | 1.330195e+00 | 2.446173e+00 |  83.90%|  70.80%
 22.0s| 10700 |  1147 |351903 |  32.9 |    48M |  34 | 141 | 362 | 278 | 167k|  1 |1870 | 824 | 1.341659e+00 | 2.446173e+00 |  82.32%|  71.11%
 22.2s| 10800 |  1132 |354696 |  32.8 |    49M |  34 | 141 | 368 |1250 | 169k|  2 |1887 | 830 | 1.350208e+00 | 2.446173e+00 |  81.17%|  71.61%
 22.3s| 10900 |  1105 |356970 |  32.7 |    49M |  34 | 141 | 370 | 279 | 169k|  6 |1896 | 840 | 1.368308e+00 | 2.446173e+00 |  78.77%|  72.17%
 22.5s| 11000 |  1112 |359162 |  32.6 |    49M |  34 | 141 | 384 | 213 | 171k|  0 |1923 | 849 | 1.368312e+00 | 2.446173e+00 |  78.77%|  72.23%
 22.7s| 11100 |  1101 |361734 |  32.6 |    49M |  34 | 141 | 389 | 281 | 172k|  0 |1939 | 867 | 1.368312e+00 | 2.446173e+00 |  78.77%|  72.64%
 22.9s| 11200 |  1074 |364344 |  32.5 |    49M |  34 | 141 | 389 | 204 | 173k|  0 |1958 | 869 | 1.369022e+00 | 2.446173e+00 |  78.68%|  73.34%
 23.0s| 11300 |  1075 |366781 |  32.4 |    49M |  34 | 141 | 391 | 237 | 174k|  0 |1973 | 876 | 1.369207e+00 | 2.446173e+00 |  78.66%|  73.42%
 23.2s| 11400 |  1059 |369258 |  32.4 |    49M |  34 | 141 | 405 | 219 | 175k|  0 |1997 | 876 | 1.389778e+00 | 2.446173e+00 |  76.01%|  73.84%
 23.4s| 11500 |  1047 |371523 |  32.3 |    49M |  34 | 141 | 406 | 253 | 176k|  1 |2008 | 882 | 1.389778e+00 | 2.446173e+00 |  76.01%|  74.09%
 23.6s| 11600 |  1039 |374100 |  32.2 |    49M |  34 | 141 | 409 | 300 | 177k|  5 |2023 | 888 | 1.389779e+00 | 2.446173e+00 |  76.01%|  74.46%
 23.7s| 11700 |  1045 |376304 |  32.1 |    50M |  34 | 141 | 412 | 260 | 178k|  6 |2036 | 889 | 1.389780e+00 | 2.446173e+00 |  76.01%|  74.77%
 23.8s| 11800 |  1037 |378492 |  32.1 |    50M |  34 | 141 | 410 | 233 | 179k|  2 |2042 | 892 | 1.393313e+00 | 2.446173e+00 |  75.57%|  74.95%
 24.0s| 11900 |  1021 |380871 |  32.0 |    50M |  34 | 141 | 414 | 213 | 180k|  0 |2052 | 894 | 1.401545e+00 | 2.446173e+00 |  74.53%|  75.29%
 time | node  | left  |LP iter|LP it/n|mem/heur|mdpt |vars |cons |rows |cuts |sepa|confs|strbr|  dualbound   | primalbound  |  gap   | compl. 
 24.2s| 12000 |  1011 |383404 |  31.9 |    50M |  34 | 141 | 417 | 307 | 182k|  5 |2064 | 898 | 1.401545e+00 | 2.446173e+00 |  74.53%|  75.65%
 24.3s| 12100 |   995 |385601 |  31.8 |    50M |  34 | 141 | 426 | 173 | 183k|  3 |2080 | 905 | 1.421268e+00 | 2.446173e+00 |  72.11%|  76.14%
 24.5s| 12200 |   975 |387395 |  31.7 |    50M |  34 | 141 | 433 | 234 | 183k|  2 |2098 | 906 | 1.431310e+00 | 2.446173e+00 |  70.90%|  77.13%
 24.7s| 12300 |   948 |389707 |  31.7 |    50M |  34 | 141 | 436 | 429 | 184k|  1 |2116 | 910 | 1.449608e+00 | 2.446173e+00 |  68.75%|  77.72%
 24.9s| 12400 |   907 |391873 |  31.6 |    50M |  34 | 141 | 452 | 305 | 185k|  2 |2145 | 913 | 1.473522e+00 | 2.446173e+00 |  66.01%|  78.72%
 25.1s| 12500 |   881 |394485 |  31.5 |    51M |  34 | 141 | 462 | 183 | 186k|  2 |2163 | 923 | 1.490043e+00 | 2.446173e+00 |  64.17%|  79.45%
 25.2s| 12600 |   844 |396407 |  31.4 |    51M |  34 | 141 | 467 | 851 | 187k|  5 |2178 | 926 | 1.515059e+00 | 2.446173e+00 |  61.46%|  80.04%
 25.3s| 12700 |   829 |398101 |  31.3 |    51M |  34 | 141 | 469 | 194 | 188k|  2 |2194 | 931 | 1.515784e+00 | 2.446173e+00 |  61.38%|  80.33%
 25.5s| 12800 |   813 |400251 |  31.2 |    51M |  34 | 141 | 475 | 197 | 189k|  2 |2215 | 934 | 1.537131e+00 | 2.446173e+00 |  59.14%|  80.98%
 25.6s| 12900 |   798 |402390 |  31.2 |    51M |  34 | 141 | 482 | 323 | 190k|  0 |2231 | 942 | 1.575417e+00 | 2.446173e+00 |  55.27%|  81.65%
 25.8s| 13000 |   781 |405547 |  31.2 |    51M |  34 | 141 | 492 | 244 | 191k|  2 |2253 | 949 | 1.586835e+00 | 2.446173e+00 |  54.15%|  82.09%
 25.9s| 13100 |   782 |408829 |  31.2 |    51M |  34 | 141 | 494 | 229 | 192k|  1 |2263 | 952 | 1.587390e+00 | 2.446173e+00 |  54.10%|  82.12%
 26.1s| 13200 |   776 |411065 |  31.1 |    51M |  34 | 141 | 494 | 250 | 193k|  0 |2279 | 965 | 1.604884e+00 | 2.446173e+00 |  52.42%|  82.23%
 26.3s| 13300 |   752 |413158 |  31.0 |    51M |  34 | 141 | 497 |1191 | 194k|  0 |2288 | 969 | 1.605562e+00 | 2.446173e+00 |  52.36%|  82.70%
 26.5s| 13400 |   738 |415796 |  31.0 |    51M |  34 | 141 | 500 | 231 | 195k|  9 |2302 | 973 | 1.611115e+00 | 2.446173e+00 |  51.83%|  83.11%
 time | node  | left  |LP iter|LP it/n|mem/heur|mdpt |vars |cons |rows |cuts |sepa|confs|strbr|  dualbound   | primalbound  |  gap   | compl. 
 26.6s| 13500 |   710 |418000 |  30.9 |    51M |  34 | 141 | 507 | 178 | 196k|  1 |2317 | 976 | 1.611123e+00 | 2.446173e+00 |  51.83%|  83.57%
 26.8s| 13600 |   699 |420167 |  30.9 |    51M |  34 | 141 | 526 | 201 | 197k|  1 |2347 | 982 | 1.611126e+00 | 2.446173e+00 |  51.83%|  84.58%
 27.0s| 13700 |   685 |422139 |  30.8 |    52M |  34 | 141 | 544 | 211 | 198k|  2 |2373 | 984 | 1.617902e+00 | 2.446173e+00 |  51.19%|  84.96%
 27.1s| 13800 |   697 |425083 |  30.8 |    52M |  34 | 141 | 565 | 293 | 200k|  0 |2405 | 990 | 1.617904e+00 | 2.446173e+00 |  51.19%|  85.00%
 27.3s| 13900 |   689 |427728 |  30.8 |    53M |  34 | 141 | 566 | 231 | 201k|  2 |2423 | 996 | 1.617926e+00 | 2.446173e+00 |  51.19%|  85.06%
 27.5s| 14000 |   667 |429794 |  30.7 |    53M |  34 | 141 | 563 | 224 | 202k|  3 |2445 |1002 | 1.617928e+00 | 2.446173e+00 |  51.19%|  85.50%
 27.7s| 14100 |   648 |432196 |  30.6 |    53M |  34 | 141 | 569 | 160 | 203k|  0 |2461 |1010 | 1.617929e+00 | 2.446173e+00 |  51.19%|  85.70%
 27.8s| 14200 |   624 |434354 |  30.6 |    53M |  34 | 141 | 574 | 209 | 204k|  1 |2483 |1016 | 1.621418e+00 | 2.446173e+00 |  50.87%|  86.01%
 28.1s| 14300 |   608 |437203 |  30.6 |    53M |  34 | 141 | 583 | 242 | 205k|  6 |2507 |1019 | 1.636187e+00 | 2.446173e+00 |  49.50%|  86.40%
 28.2s| 14400 |   573 |439118 |  30.5 |    53M |  34 | 141 | 593 | 401 | 205k|  0 |2531 |1021 | 1.658648e+00 | 2.446173e+00 |  47.48%|  87.03%
 28.4s| 14500 |   556 |440970 |  30.4 |    53M |  34 | 141 | 594 | 240 | 206k|  2 |2543 |1024 | 1.674729e+00 | 2.446173e+00 |  46.06%|  87.47%
 28.5s| 14600 |   506 |442971 |  30.3 |    53M |  34 | 141 | 592 | 843 | 207k|  0 |2558 |1026 | 1.683528e+00 | 2.446173e+00 |  45.30%|  87.99%
 28.8s| 14700 |   461 |445194 |  30.3 |    53M |  34 | 141 | 609 | 283 | 208k|  3 |2585 |1037 | 1.713654e+00 | 2.446173e+00 |  42.75%|  89.00%
 29.0s| 14800 |   443 |447409 |  30.2 |    53M |  34 | 141 | 619 | 180 | 208k|  0 |2610 |1043 | 1.714905e+00 | 2.446173e+00 |  42.64%|  89.44%
 29.1s| 14900 |   417 |449729 |  30.2 |    53M |  34 | 141 | 626 | 231 | 209k|  0 |2628 |1048 | 1.719593e+00 | 2.446173e+00 |  42.25%|  89.96%
 time | node  | left  |LP iter|LP it/n|mem/heur|mdpt |vars |cons |rows |cuts |sepa|confs|strbr|  dualbound   | primalbound  |  gap   | compl. 
 29.4s| 15000 |   355 |452083 |  30.1 |    54M |  34 | 141 | 629 | 229 | 210k|  1 |2645 |1050 | 1.761122e+00 | 2.446173e+00 |  38.90%|  91.06%
 29.6s| 15100 |   291 |453712 |  30.0 |    54M |  34 | 141 | 643 | 258 | 211k|  1 |2668 |1053 | 1.813412e+00 | 2.446173e+00 |  34.89%|  93.04%
 29.7s| 15200 |   272 |455915 |  30.0 |    54M |  34 | 141 | 659 | 155 | 211k|  2 |2690 |1057 | 1.846706e+00 | 2.446173e+00 |  32.46%|  93.67%
 29.9s| 15300 |   247 |458302 |  29.9 |    54M |  34 | 141 | 671 | 211 | 212k|  2 |2712 |1057 | 1.862520e+00 | 2.446173e+00 |  31.34%|  94.33%
 30.1s| 15400 |   203 |460831 |  29.9 |    54M |  34 | 141 | 683 | 225 | 213k|  0 |2736 |1058 | 1.875580e+00 | 2.446173e+00 |  30.42%|  94.89%
 30.4s| 15500 |   163 |462912 |  29.8 |    54M |  34 | 141 | 688 | 173 | 214k|  0 |2752 |1059 | 1.908618e+00 | 2.446173e+00 |  28.16%|  96.21%
 30.6s| 15600 |    96 |464925 |  29.8 |    54M |  34 | 141 | 696 | 214 | 215k|  2 |2773 |1061 | 2.008579e+00 | 2.446173e+00 |  21.79%|  97.38%
 30.8s| 15700 |    56 |467301 |  29.7 |    55M |  34 | 141 | 714 | 364 | 215k|  0 |2802 |1068 | 2.119613e+00 | 2.446173e+00 |  15.41%|  98.64%

SCIP Status        : problem is solved [optimal solution found]
Solving Time (sec) : 30.91
Solving Nodes      : 15747
Primal Bound       : +2.44617314568279e+00 (37 solutions)
Dual Bound         : +2.44617314568279e+00
Gap                : 0.00 %


--- Reading solution for model GAMS_MODEL
***
*** Solver did not provide marginals for model GAMS_MODEL
***
--- Executing after solve: elapsed 0:00:30.981
--- model.gms(298) 3 Mb
--- model.gms(495) 5 Mb
--- Putfile results /local/scratch/a/sgusev/repos/k_means/data/gams_scip_gdp.bigm/no_mode/2026-02-16_01-33-34/original/results.dat
--- Putfile statresults /local/scratch/a/sgusev/repos/k_means/data/gams_scip_gdp.bigm/no_mode/2026-02-16_01-33-34/original/resultsstat.dat
*** Status: Normal completion
--- Job model.gms Stop 02/16/26 01:34:06 elapsed 0:00:30.982
Original problem solved. Time taken: 31.533945560455322 seconds
Original objective value: 2.446173145682789
